(declare-fun v3 () (_ BitVec 1))
(declare-fun a100 () (Array (_ BitVec 1) (_ BitVec 7)))
(declare-fun a101 () (Array (_ BitVec 15) (_ BitVec 11)))
(assert
(let (($e6 (_ bv1048 12)))
(let (($e10 (_ bv0    11)))
(let (($e34 (_ bv0 8)))
(let (($e128 ((_ extract 7 1) $e6  )))
(let (($e132 (store a100 false       $e128)))
(let (($e156 (concat $e10 v3)))
(let (($e157 (bvand (bvnot $e6) $e156)))
(let (($e158 (bvand $e6 (bvnot $e156))))
(let (($e159 (bvand (bvnot $e158) (bvnot $e157))))
(let (($e370 ((_ extract 2 2) $e159)))
(let (($e371 (select $e132 (not   $e370))))
(let (($e373 (concat        $e34  $e371)))
(let (($e406 (select a101  $e373)))
                  (bvult $e10  $e406)
                                                                                                                                                                                                                                                                                                                                                                                                                                                                                                                                                                                                                                                                                                                                                                                                                                                                                                                                                                                                                                                                                                                                                    )                                ) ))                                                                                                                                                                                                                  ))))                       )   )                                                      )                       )   )     )
